k-points along high symmetry lines
 50  ! 40 intersections 
Line-mode
Reciprocal
  0   0   0      ! gamma
  0.5 0.5 0      ! X

  0.5 0.5 0      ! X
  0.5 0.75 0.25  ! W

  0.5 0.75 0.25  ! W
  0.5 0.5 0.5	 ! L

  0.5 0.5 0.5	 ! L
  0   0   0      ! gamma

  0   0   0      ! gamma
  0.375 .75 0.375 ! K