&CONTROL
    pseudo_dir = '/fslhome/jeremy12/quantum_espresso/integration_convergence/Al'
    calculation = 'scf'
    prefix = 'Al'
/

&SYSTEM
    nat = 4
    ntyp = 1
    ibrav = 2
    ecutwfc = 40.0
    occupations ='smearing'
    celldm(1) = 4.046
    smearing = "gaussian"
    degauss = 0.000100001
/

&ELECTRONS
    mixing_beta = 0.7
    conv_thr = 1.0d-8
/

ATOMIC_SPECIES
 Al 26.982 Al.pbe-high.UPF

ATOMIC_POSITIONS angstrom
 Al 0.00000000 0.00000000 0.00000000
 Al 2.02300000 2.02300000 0.00000000
 Al 0.00000000 2.02300000 2.02300000
 Al 2.02300000 0.00000000 2.02300000

K_POINTS automatic
 2 2 2 0 0 0
