&CONTROL
    pseudo_dir  = '/fslhome/jeremy12/quantum_espresso/integration_convergence/Si'
    calculation = 'scf',
    prefix = 'Si',
 /
 
&SYSTEM
    ibrav =  2,
    celldm(1) = 10.26,
    nat =  2,
    ntyp = 1,
    ecutwfc = 20
    occupations = 'tetrahedra'
    lspinorb = .true.
    noncolin = .true.
 /
 
&ELECTRONS
    mixing_beta = 0.7
    conv_thr = 1.0d-8
 /

ATOMIC_SPECIES
 Si 28.086  Si.rel-pbe-rrkj.UPF

ATOMIC_POSITIONS (alat)
 Si 0.0 0.0 0.0
 Si 0.25 0.25 0.25

K_POINTS (automatic)
 6 6 6 1 1 1
