ALGO = Fast
EDIFF = 0.0002
ENCUT = 520
IBRION = 2
ISIF = 3
ISMEAR = -5
LORBIT = 11
LREAL= False
LWAVE = False
NELM = 100
NSW = 99
PREC = Accurate
SIGMA = 0.05
