pymatgen 4.7.6+ generated KPOINTS with grid density = 1343 / atom
0
Gamma
8 8 8
0.5 0.5 0.5
