IBRION = 2
ISIF = 5 
ISMEAR = -1
SIGMA = 0.001
NSW = 100
POTIM = 0.5
ENCUT = 400
PREC = Accurate
NBANDS = 20
ICHARG = 11
